32      1       
20      
0       0       3       2       3       4       
2       8       2       5       6       
6       3       1       29      
10      0       3       7       12      19      
5       0       1       17      
10      2       2       8       21      
1       0       3       9       10      11      
8       0       1       20      
9       0       2       13      15      
2       0       2       15      26      
10      0       1       25      
7       5       2       16      23      
10      0       2       14      16      
7       0       2       18      23      
4       0       3       18      24      28      
7       6       1       20      
6       10      2       22      24      
10      10      1       31      
6       7       1       26      
10      0       1       30      
9       7       1       26      
2       10      1       30      
10      0       1       30      
8       1       1       27      
5       2       1       31      
2       0       2       28      29      
7       8       1       29      
1       0       1       31      
1       0       1       32      
1       2       1       32      
5       9       1       32      
0       0       0       